language ESSENCE' 1.0
letting nrows be 8
letting ncols be 8

letting nrobots be 8
letting robot_pos be [[1, 1], 
                     [3 , 1],
                     [5 , 1],
                     [7 , 1],
                     [2 , 8],
                     [4 , 8],
                     [6 , 8],
                     [8 , 8]]

letting ntasks be 12 
letting task_obj be [1, 2, 3, 1, 2, 3, 1, 2, 3, 1, 2, 3]
letting task_dest be [[1 , 2], 
                      [1 , 3],
                      [1 , 4],
                      [1 , 5],
                      [1 , 6],
                      [1 , 7],
                      [8 , 2],
                      [8 , 3],
                      [8 , 4],
                      [8 , 5],
                      [8 , 6],
                      [8 , 7]]

letting time_limit be 15

letting map be [[ 0, 0, 0, 0, 0, 0, 0, 0],
                [ 0,-1,-1, 3, 3,-1,-1, 0],
                [ 0, 0, 1, 0, 0, 1, 0, 0],
                [ 0,-1,-1, 0, 0,-1,-1, 0],
                [ 0, 0, 1, 0, 0, 1, 0, 0],
                [ 0,-1,-1, 3, 3,-1,-1, 0],
                [ 0, 0, 2, 0, 0, 2, 0, 0],
                [ 0, 0, 0, 0, 0, 0, 0, 0]]
